c *********************************
c * Circuit generated by BenCGen
c *
c * Parity_506
c *
c * Ports with 1 gate(s): 1
c * Ports with 2 gate(s): 506
c * Total gates: 507
c *********************************
p cnf 1013 2025
1 509 0
-1 -509 0
1 -508 0
509 -508 0
-1 -509 508 0
1 2 -510 0
-1 2 510 0
1 -2 510 0
-1 -2 -510 0
3 4 -511 0
-3 4 511 0
3 -4 511 0
-3 -4 -511 0
5 6 -512 0
-5 6 512 0
5 -6 512 0
-5 -6 -512 0
7 8 -513 0
-7 8 513 0
7 -8 513 0
-7 -8 -513 0
9 10 -514 0
-9 10 514 0
9 -10 514 0
-9 -10 -514 0
11 12 -515 0
-11 12 515 0
11 -12 515 0
-11 -12 -515 0
13 14 -516 0
-13 14 516 0
13 -14 516 0
-13 -14 -516 0
15 16 -517 0
-15 16 517 0
15 -16 517 0
-15 -16 -517 0
17 18 -518 0
-17 18 518 0
17 -18 518 0
-17 -18 -518 0
19 20 -519 0
-19 20 519 0
19 -20 519 0
-19 -20 -519 0
21 22 -520 0
-21 22 520 0
21 -22 520 0
-21 -22 -520 0
23 24 -521 0
-23 24 521 0
23 -24 521 0
-23 -24 -521 0
25 26 -522 0
-25 26 522 0
25 -26 522 0
-25 -26 -522 0
27 28 -523 0
-27 28 523 0
27 -28 523 0
-27 -28 -523 0
29 30 -524 0
-29 30 524 0
29 -30 524 0
-29 -30 -524 0
31 32 -525 0
-31 32 525 0
31 -32 525 0
-31 -32 -525 0
33 34 -526 0
-33 34 526 0
33 -34 526 0
-33 -34 -526 0
35 36 -527 0
-35 36 527 0
35 -36 527 0
-35 -36 -527 0
37 38 -528 0
-37 38 528 0
37 -38 528 0
-37 -38 -528 0
39 40 -529 0
-39 40 529 0
39 -40 529 0
-39 -40 -529 0
41 42 -530 0
-41 42 530 0
41 -42 530 0
-41 -42 -530 0
43 44 -531 0
-43 44 531 0
43 -44 531 0
-43 -44 -531 0
45 46 -532 0
-45 46 532 0
45 -46 532 0
-45 -46 -532 0
47 48 -533 0
-47 48 533 0
47 -48 533 0
-47 -48 -533 0
49 50 -534 0
-49 50 534 0
49 -50 534 0
-49 -50 -534 0
51 52 -535 0
-51 52 535 0
51 -52 535 0
-51 -52 -535 0
53 54 -536 0
-53 54 536 0
53 -54 536 0
-53 -54 -536 0
55 56 -537 0
-55 56 537 0
55 -56 537 0
-55 -56 -537 0
57 58 -538 0
-57 58 538 0
57 -58 538 0
-57 -58 -538 0
59 60 -539 0
-59 60 539 0
59 -60 539 0
-59 -60 -539 0
61 62 -540 0
-61 62 540 0
61 -62 540 0
-61 -62 -540 0
63 64 -541 0
-63 64 541 0
63 -64 541 0
-63 -64 -541 0
65 66 -542 0
-65 66 542 0
65 -66 542 0
-65 -66 -542 0
67 68 -543 0
-67 68 543 0
67 -68 543 0
-67 -68 -543 0
69 70 -544 0
-69 70 544 0
69 -70 544 0
-69 -70 -544 0
71 72 -545 0
-71 72 545 0
71 -72 545 0
-71 -72 -545 0
73 74 -546 0
-73 74 546 0
73 -74 546 0
-73 -74 -546 0
75 76 -547 0
-75 76 547 0
75 -76 547 0
-75 -76 -547 0
77 78 -548 0
-77 78 548 0
77 -78 548 0
-77 -78 -548 0
79 80 -549 0
-79 80 549 0
79 -80 549 0
-79 -80 -549 0
81 82 -550 0
-81 82 550 0
81 -82 550 0
-81 -82 -550 0
83 84 -551 0
-83 84 551 0
83 -84 551 0
-83 -84 -551 0
85 86 -552 0
-85 86 552 0
85 -86 552 0
-85 -86 -552 0
87 88 -553 0
-87 88 553 0
87 -88 553 0
-87 -88 -553 0
89 90 -554 0
-89 90 554 0
89 -90 554 0
-89 -90 -554 0
91 92 -555 0
-91 92 555 0
91 -92 555 0
-91 -92 -555 0
93 94 -556 0
-93 94 556 0
93 -94 556 0
-93 -94 -556 0
95 96 -557 0
-95 96 557 0
95 -96 557 0
-95 -96 -557 0
97 98 -558 0
-97 98 558 0
97 -98 558 0
-97 -98 -558 0
99 100 -559 0
-99 100 559 0
99 -100 559 0
-99 -100 -559 0
101 102 -560 0
-101 102 560 0
101 -102 560 0
-101 -102 -560 0
103 104 -561 0
-103 104 561 0
103 -104 561 0
-103 -104 -561 0
105 106 -562 0
-105 106 562 0
105 -106 562 0
-105 -106 -562 0
107 108 -563 0
-107 108 563 0
107 -108 563 0
-107 -108 -563 0
109 110 -564 0
-109 110 564 0
109 -110 564 0
-109 -110 -564 0
111 112 -565 0
-111 112 565 0
111 -112 565 0
-111 -112 -565 0
113 114 -566 0
-113 114 566 0
113 -114 566 0
-113 -114 -566 0
115 116 -567 0
-115 116 567 0
115 -116 567 0
-115 -116 -567 0
117 118 -568 0
-117 118 568 0
117 -118 568 0
-117 -118 -568 0
119 120 -569 0
-119 120 569 0
119 -120 569 0
-119 -120 -569 0
121 122 -570 0
-121 122 570 0
121 -122 570 0
-121 -122 -570 0
123 124 -571 0
-123 124 571 0
123 -124 571 0
-123 -124 -571 0
125 126 -572 0
-125 126 572 0
125 -126 572 0
-125 -126 -572 0
127 128 -573 0
-127 128 573 0
127 -128 573 0
-127 -128 -573 0
129 130 -574 0
-129 130 574 0
129 -130 574 0
-129 -130 -574 0
131 132 -575 0
-131 132 575 0
131 -132 575 0
-131 -132 -575 0
133 134 -576 0
-133 134 576 0
133 -134 576 0
-133 -134 -576 0
135 136 -577 0
-135 136 577 0
135 -136 577 0
-135 -136 -577 0
137 138 -578 0
-137 138 578 0
137 -138 578 0
-137 -138 -578 0
139 140 -579 0
-139 140 579 0
139 -140 579 0
-139 -140 -579 0
141 142 -580 0
-141 142 580 0
141 -142 580 0
-141 -142 -580 0
143 144 -581 0
-143 144 581 0
143 -144 581 0
-143 -144 -581 0
145 146 -582 0
-145 146 582 0
145 -146 582 0
-145 -146 -582 0
147 148 -583 0
-147 148 583 0
147 -148 583 0
-147 -148 -583 0
149 150 -584 0
-149 150 584 0
149 -150 584 0
-149 -150 -584 0
151 152 -585 0
-151 152 585 0
151 -152 585 0
-151 -152 -585 0
153 154 -586 0
-153 154 586 0
153 -154 586 0
-153 -154 -586 0
155 156 -587 0
-155 156 587 0
155 -156 587 0
-155 -156 -587 0
157 158 -588 0
-157 158 588 0
157 -158 588 0
-157 -158 -588 0
159 160 -589 0
-159 160 589 0
159 -160 589 0
-159 -160 -589 0
161 162 -590 0
-161 162 590 0
161 -162 590 0
-161 -162 -590 0
163 164 -591 0
-163 164 591 0
163 -164 591 0
-163 -164 -591 0
165 166 -592 0
-165 166 592 0
165 -166 592 0
-165 -166 -592 0
167 168 -593 0
-167 168 593 0
167 -168 593 0
-167 -168 -593 0
169 170 -594 0
-169 170 594 0
169 -170 594 0
-169 -170 -594 0
171 172 -595 0
-171 172 595 0
171 -172 595 0
-171 -172 -595 0
173 174 -596 0
-173 174 596 0
173 -174 596 0
-173 -174 -596 0
175 176 -597 0
-175 176 597 0
175 -176 597 0
-175 -176 -597 0
177 178 -598 0
-177 178 598 0
177 -178 598 0
-177 -178 -598 0
179 180 -599 0
-179 180 599 0
179 -180 599 0
-179 -180 -599 0
181 182 -600 0
-181 182 600 0
181 -182 600 0
-181 -182 -600 0
183 184 -601 0
-183 184 601 0
183 -184 601 0
-183 -184 -601 0
185 186 -602 0
-185 186 602 0
185 -186 602 0
-185 -186 -602 0
187 188 -603 0
-187 188 603 0
187 -188 603 0
-187 -188 -603 0
189 190 -604 0
-189 190 604 0
189 -190 604 0
-189 -190 -604 0
191 192 -605 0
-191 192 605 0
191 -192 605 0
-191 -192 -605 0
193 194 -606 0
-193 194 606 0
193 -194 606 0
-193 -194 -606 0
195 196 -607 0
-195 196 607 0
195 -196 607 0
-195 -196 -607 0
197 198 -608 0
-197 198 608 0
197 -198 608 0
-197 -198 -608 0
199 200 -609 0
-199 200 609 0
199 -200 609 0
-199 -200 -609 0
201 202 -610 0
-201 202 610 0
201 -202 610 0
-201 -202 -610 0
203 204 -611 0
-203 204 611 0
203 -204 611 0
-203 -204 -611 0
205 206 -612 0
-205 206 612 0
205 -206 612 0
-205 -206 -612 0
207 208 -613 0
-207 208 613 0
207 -208 613 0
-207 -208 -613 0
209 210 -614 0
-209 210 614 0
209 -210 614 0
-209 -210 -614 0
211 212 -615 0
-211 212 615 0
211 -212 615 0
-211 -212 -615 0
213 214 -616 0
-213 214 616 0
213 -214 616 0
-213 -214 -616 0
215 216 -617 0
-215 216 617 0
215 -216 617 0
-215 -216 -617 0
217 218 -618 0
-217 218 618 0
217 -218 618 0
-217 -218 -618 0
219 220 -619 0
-219 220 619 0
219 -220 619 0
-219 -220 -619 0
221 222 -620 0
-221 222 620 0
221 -222 620 0
-221 -222 -620 0
223 224 -621 0
-223 224 621 0
223 -224 621 0
-223 -224 -621 0
225 226 -622 0
-225 226 622 0
225 -226 622 0
-225 -226 -622 0
227 228 -623 0
-227 228 623 0
227 -228 623 0
-227 -228 -623 0
229 230 -624 0
-229 230 624 0
229 -230 624 0
-229 -230 -624 0
231 232 -625 0
-231 232 625 0
231 -232 625 0
-231 -232 -625 0
233 234 -626 0
-233 234 626 0
233 -234 626 0
-233 -234 -626 0
235 236 -627 0
-235 236 627 0
235 -236 627 0
-235 -236 -627 0
237 238 -628 0
-237 238 628 0
237 -238 628 0
-237 -238 -628 0
239 240 -629 0
-239 240 629 0
239 -240 629 0
-239 -240 -629 0
241 242 -630 0
-241 242 630 0
241 -242 630 0
-241 -242 -630 0
243 244 -631 0
-243 244 631 0
243 -244 631 0
-243 -244 -631 0
245 246 -632 0
-245 246 632 0
245 -246 632 0
-245 -246 -632 0
247 248 -633 0
-247 248 633 0
247 -248 633 0
-247 -248 -633 0
249 250 -634 0
-249 250 634 0
249 -250 634 0
-249 -250 -634 0
251 252 -635 0
-251 252 635 0
251 -252 635 0
-251 -252 -635 0
253 254 -636 0
-253 254 636 0
253 -254 636 0
-253 -254 -636 0
255 256 -637 0
-255 256 637 0
255 -256 637 0
-255 -256 -637 0
257 258 -638 0
-257 258 638 0
257 -258 638 0
-257 -258 -638 0
259 260 -639 0
-259 260 639 0
259 -260 639 0
-259 -260 -639 0
261 262 -640 0
-261 262 640 0
261 -262 640 0
-261 -262 -640 0
263 264 -641 0
-263 264 641 0
263 -264 641 0
-263 -264 -641 0
265 266 -642 0
-265 266 642 0
265 -266 642 0
-265 -266 -642 0
267 268 -643 0
-267 268 643 0
267 -268 643 0
-267 -268 -643 0
269 270 -644 0
-269 270 644 0
269 -270 644 0
-269 -270 -644 0
271 272 -645 0
-271 272 645 0
271 -272 645 0
-271 -272 -645 0
273 274 -646 0
-273 274 646 0
273 -274 646 0
-273 -274 -646 0
275 276 -647 0
-275 276 647 0
275 -276 647 0
-275 -276 -647 0
277 278 -648 0
-277 278 648 0
277 -278 648 0
-277 -278 -648 0
279 280 -649 0
-279 280 649 0
279 -280 649 0
-279 -280 -649 0
281 282 -650 0
-281 282 650 0
281 -282 650 0
-281 -282 -650 0
283 284 -651 0
-283 284 651 0
283 -284 651 0
-283 -284 -651 0
285 286 -652 0
-285 286 652 0
285 -286 652 0
-285 -286 -652 0
287 288 -653 0
-287 288 653 0
287 -288 653 0
-287 -288 -653 0
289 290 -654 0
-289 290 654 0
289 -290 654 0
-289 -290 -654 0
291 292 -655 0
-291 292 655 0
291 -292 655 0
-291 -292 -655 0
293 294 -656 0
-293 294 656 0
293 -294 656 0
-293 -294 -656 0
295 296 -657 0
-295 296 657 0
295 -296 657 0
-295 -296 -657 0
297 298 -658 0
-297 298 658 0
297 -298 658 0
-297 -298 -658 0
299 300 -659 0
-299 300 659 0
299 -300 659 0
-299 -300 -659 0
301 302 -660 0
-301 302 660 0
301 -302 660 0
-301 -302 -660 0
303 304 -661 0
-303 304 661 0
303 -304 661 0
-303 -304 -661 0
305 306 -662 0
-305 306 662 0
305 -306 662 0
-305 -306 -662 0
307 308 -663 0
-307 308 663 0
307 -308 663 0
-307 -308 -663 0
309 310 -664 0
-309 310 664 0
309 -310 664 0
-309 -310 -664 0
311 312 -665 0
-311 312 665 0
311 -312 665 0
-311 -312 -665 0
313 314 -666 0
-313 314 666 0
313 -314 666 0
-313 -314 -666 0
315 316 -667 0
-315 316 667 0
315 -316 667 0
-315 -316 -667 0
317 318 -668 0
-317 318 668 0
317 -318 668 0
-317 -318 -668 0
319 320 -669 0
-319 320 669 0
319 -320 669 0
-319 -320 -669 0
321 322 -670 0
-321 322 670 0
321 -322 670 0
-321 -322 -670 0
323 324 -671 0
-323 324 671 0
323 -324 671 0
-323 -324 -671 0
325 326 -672 0
-325 326 672 0
325 -326 672 0
-325 -326 -672 0
327 328 -673 0
-327 328 673 0
327 -328 673 0
-327 -328 -673 0
329 330 -674 0
-329 330 674 0
329 -330 674 0
-329 -330 -674 0
331 332 -675 0
-331 332 675 0
331 -332 675 0
-331 -332 -675 0
333 334 -676 0
-333 334 676 0
333 -334 676 0
-333 -334 -676 0
335 336 -677 0
-335 336 677 0
335 -336 677 0
-335 -336 -677 0
337 338 -678 0
-337 338 678 0
337 -338 678 0
-337 -338 -678 0
339 340 -679 0
-339 340 679 0
339 -340 679 0
-339 -340 -679 0
341 342 -680 0
-341 342 680 0
341 -342 680 0
-341 -342 -680 0
343 344 -681 0
-343 344 681 0
343 -344 681 0
-343 -344 -681 0
345 346 -682 0
-345 346 682 0
345 -346 682 0
-345 -346 -682 0
347 348 -683 0
-347 348 683 0
347 -348 683 0
-347 -348 -683 0
349 350 -684 0
-349 350 684 0
349 -350 684 0
-349 -350 -684 0
351 352 -685 0
-351 352 685 0
351 -352 685 0
-351 -352 -685 0
353 354 -686 0
-353 354 686 0
353 -354 686 0
-353 -354 -686 0
355 356 -687 0
-355 356 687 0
355 -356 687 0
-355 -356 -687 0
357 358 -688 0
-357 358 688 0
357 -358 688 0
-357 -358 -688 0
359 360 -689 0
-359 360 689 0
359 -360 689 0
-359 -360 -689 0
361 362 -690 0
-361 362 690 0
361 -362 690 0
-361 -362 -690 0
363 364 -691 0
-363 364 691 0
363 -364 691 0
-363 -364 -691 0
365 366 -692 0
-365 366 692 0
365 -366 692 0
-365 -366 -692 0
367 368 -693 0
-367 368 693 0
367 -368 693 0
-367 -368 -693 0
369 370 -694 0
-369 370 694 0
369 -370 694 0
-369 -370 -694 0
371 372 -695 0
-371 372 695 0
371 -372 695 0
-371 -372 -695 0
373 374 -696 0
-373 374 696 0
373 -374 696 0
-373 -374 -696 0
375 376 -697 0
-375 376 697 0
375 -376 697 0
-375 -376 -697 0
377 378 -698 0
-377 378 698 0
377 -378 698 0
-377 -378 -698 0
379 380 -699 0
-379 380 699 0
379 -380 699 0
-379 -380 -699 0
381 382 -700 0
-381 382 700 0
381 -382 700 0
-381 -382 -700 0
383 384 -701 0
-383 384 701 0
383 -384 701 0
-383 -384 -701 0
385 386 -702 0
-385 386 702 0
385 -386 702 0
-385 -386 -702 0
387 388 -703 0
-387 388 703 0
387 -388 703 0
-387 -388 -703 0
389 390 -704 0
-389 390 704 0
389 -390 704 0
-389 -390 -704 0
391 392 -705 0
-391 392 705 0
391 -392 705 0
-391 -392 -705 0
393 394 -706 0
-393 394 706 0
393 -394 706 0
-393 -394 -706 0
395 396 -707 0
-395 396 707 0
395 -396 707 0
-395 -396 -707 0
397 398 -708 0
-397 398 708 0
397 -398 708 0
-397 -398 -708 0
399 400 -709 0
-399 400 709 0
399 -400 709 0
-399 -400 -709 0
401 402 -710 0
-401 402 710 0
401 -402 710 0
-401 -402 -710 0
403 404 -711 0
-403 404 711 0
403 -404 711 0
-403 -404 -711 0
405 406 -712 0
-405 406 712 0
405 -406 712 0
-405 -406 -712 0
407 408 -713 0
-407 408 713 0
407 -408 713 0
-407 -408 -713 0
409 410 -714 0
-409 410 714 0
409 -410 714 0
-409 -410 -714 0
411 412 -715 0
-411 412 715 0
411 -412 715 0
-411 -412 -715 0
413 414 -716 0
-413 414 716 0
413 -414 716 0
-413 -414 -716 0
415 416 -717 0
-415 416 717 0
415 -416 717 0
-415 -416 -717 0
417 418 -718 0
-417 418 718 0
417 -418 718 0
-417 -418 -718 0
419 420 -719 0
-419 420 719 0
419 -420 719 0
-419 -420 -719 0
421 422 -720 0
-421 422 720 0
421 -422 720 0
-421 -422 -720 0
423 424 -721 0
-423 424 721 0
423 -424 721 0
-423 -424 -721 0
425 426 -722 0
-425 426 722 0
425 -426 722 0
-425 -426 -722 0
427 428 -723 0
-427 428 723 0
427 -428 723 0
-427 -428 -723 0
429 430 -724 0
-429 430 724 0
429 -430 724 0
-429 -430 -724 0
431 432 -725 0
-431 432 725 0
431 -432 725 0
-431 -432 -725 0
433 434 -726 0
-433 434 726 0
433 -434 726 0
-433 -434 -726 0
435 436 -727 0
-435 436 727 0
435 -436 727 0
-435 -436 -727 0
437 438 -728 0
-437 438 728 0
437 -438 728 0
-437 -438 -728 0
439 440 -729 0
-439 440 729 0
439 -440 729 0
-439 -440 -729 0
441 442 -730 0
-441 442 730 0
441 -442 730 0
-441 -442 -730 0
443 444 -731 0
-443 444 731 0
443 -444 731 0
-443 -444 -731 0
445 446 -732 0
-445 446 732 0
445 -446 732 0
-445 -446 -732 0
447 448 -733 0
-447 448 733 0
447 -448 733 0
-447 -448 -733 0
449 450 -734 0
-449 450 734 0
449 -450 734 0
-449 -450 -734 0
451 452 -735 0
-451 452 735 0
451 -452 735 0
-451 -452 -735 0
453 454 -736 0
-453 454 736 0
453 -454 736 0
-453 -454 -736 0
455 456 -737 0
-455 456 737 0
455 -456 737 0
-455 -456 -737 0
457 458 -738 0
-457 458 738 0
457 -458 738 0
-457 -458 -738 0
459 460 -739 0
-459 460 739 0
459 -460 739 0
-459 -460 -739 0
461 462 -740 0
-461 462 740 0
461 -462 740 0
-461 -462 -740 0
463 464 -741 0
-463 464 741 0
463 -464 741 0
-463 -464 -741 0
465 466 -742 0
-465 466 742 0
465 -466 742 0
-465 -466 -742 0
467 468 -743 0
-467 468 743 0
467 -468 743 0
-467 -468 -743 0
469 470 -744 0
-469 470 744 0
469 -470 744 0
-469 -470 -744 0
471 472 -745 0
-471 472 745 0
471 -472 745 0
-471 -472 -745 0
473 474 -746 0
-473 474 746 0
473 -474 746 0
-473 -474 -746 0
475 476 -747 0
-475 476 747 0
475 -476 747 0
-475 -476 -747 0
477 478 -748 0
-477 478 748 0
477 -478 748 0
-477 -478 -748 0
479 480 -749 0
-479 480 749 0
479 -480 749 0
-479 -480 -749 0
481 482 -750 0
-481 482 750 0
481 -482 750 0
-481 -482 -750 0
483 484 -751 0
-483 484 751 0
483 -484 751 0
-483 -484 -751 0
485 486 -752 0
-485 486 752 0
485 -486 752 0
-485 -486 -752 0
487 488 -753 0
-487 488 753 0
487 -488 753 0
-487 -488 -753 0
489 490 -754 0
-489 490 754 0
489 -490 754 0
-489 -490 -754 0
491 492 -755 0
-491 492 755 0
491 -492 755 0
-491 -492 -755 0
493 494 -756 0
-493 494 756 0
493 -494 756 0
-493 -494 -756 0
495 496 -757 0
-495 496 757 0
495 -496 757 0
-495 -496 -757 0
497 498 -758 0
-497 498 758 0
497 -498 758 0
-497 -498 -758 0
499 500 -759 0
-499 500 759 0
499 -500 759 0
-499 -500 -759 0
501 502 -760 0
-501 502 760 0
501 -502 760 0
-501 -502 -760 0
503 504 -761 0
-503 504 761 0
503 -504 761 0
-503 -504 -761 0
505 506 -762 0
-505 506 762 0
505 -506 762 0
-505 -506 -762 0
510 511 -763 0
-510 511 763 0
510 -511 763 0
-510 -511 -763 0
512 513 -764 0
-512 513 764 0
512 -513 764 0
-512 -513 -764 0
514 515 -765 0
-514 515 765 0
514 -515 765 0
-514 -515 -765 0
516 517 -766 0
-516 517 766 0
516 -517 766 0
-516 -517 -766 0
518 519 -767 0
-518 519 767 0
518 -519 767 0
-518 -519 -767 0
520 521 -768 0
-520 521 768 0
520 -521 768 0
-520 -521 -768 0
522 523 -769 0
-522 523 769 0
522 -523 769 0
-522 -523 -769 0
524 525 -770 0
-524 525 770 0
524 -525 770 0
-524 -525 -770 0
526 527 -771 0
-526 527 771 0
526 -527 771 0
-526 -527 -771 0
528 529 -772 0
-528 529 772 0
528 -529 772 0
-528 -529 -772 0
530 531 -773 0
-530 531 773 0
530 -531 773 0
-530 -531 -773 0
532 533 -774 0
-532 533 774 0
532 -533 774 0
-532 -533 -774 0
534 535 -775 0
-534 535 775 0
534 -535 775 0
-534 -535 -775 0
536 537 -776 0
-536 537 776 0
536 -537 776 0
-536 -537 -776 0
538 539 -777 0
-538 539 777 0
538 -539 777 0
-538 -539 -777 0
540 541 -778 0
-540 541 778 0
540 -541 778 0
-540 -541 -778 0
542 543 -779 0
-542 543 779 0
542 -543 779 0
-542 -543 -779 0
544 545 -780 0
-544 545 780 0
544 -545 780 0
-544 -545 -780 0
546 547 -781 0
-546 547 781 0
546 -547 781 0
-546 -547 -781 0
548 549 -782 0
-548 549 782 0
548 -549 782 0
-548 -549 -782 0
550 551 -783 0
-550 551 783 0
550 -551 783 0
-550 -551 -783 0
552 553 -784 0
-552 553 784 0
552 -553 784 0
-552 -553 -784 0
554 555 -785 0
-554 555 785 0
554 -555 785 0
-554 -555 -785 0
556 557 -786 0
-556 557 786 0
556 -557 786 0
-556 -557 -786 0
558 559 -787 0
-558 559 787 0
558 -559 787 0
-558 -559 -787 0
560 561 -788 0
-560 561 788 0
560 -561 788 0
-560 -561 -788 0
562 563 -789 0
-562 563 789 0
562 -563 789 0
-562 -563 -789 0
564 565 -790 0
-564 565 790 0
564 -565 790 0
-564 -565 -790 0
566 567 -791 0
-566 567 791 0
566 -567 791 0
-566 -567 -791 0
568 569 -792 0
-568 569 792 0
568 -569 792 0
-568 -569 -792 0
570 571 -793 0
-570 571 793 0
570 -571 793 0
-570 -571 -793 0
572 573 -794 0
-572 573 794 0
572 -573 794 0
-572 -573 -794 0
574 575 -795 0
-574 575 795 0
574 -575 795 0
-574 -575 -795 0
576 577 -796 0
-576 577 796 0
576 -577 796 0
-576 -577 -796 0
578 579 -797 0
-578 579 797 0
578 -579 797 0
-578 -579 -797 0
580 581 -798 0
-580 581 798 0
580 -581 798 0
-580 -581 -798 0
582 583 -799 0
-582 583 799 0
582 -583 799 0
-582 -583 -799 0
584 585 -800 0
-584 585 800 0
584 -585 800 0
-584 -585 -800 0
586 587 -801 0
-586 587 801 0
586 -587 801 0
-586 -587 -801 0
588 589 -802 0
-588 589 802 0
588 -589 802 0
-588 -589 -802 0
590 591 -803 0
-590 591 803 0
590 -591 803 0
-590 -591 -803 0
592 593 -804 0
-592 593 804 0
592 -593 804 0
-592 -593 -804 0
594 595 -805 0
-594 595 805 0
594 -595 805 0
-594 -595 -805 0
596 597 -806 0
-596 597 806 0
596 -597 806 0
-596 -597 -806 0
598 599 -807 0
-598 599 807 0
598 -599 807 0
-598 -599 -807 0
600 601 -808 0
-600 601 808 0
600 -601 808 0
-600 -601 -808 0
602 603 -809 0
-602 603 809 0
602 -603 809 0
-602 -603 -809 0
604 605 -810 0
-604 605 810 0
604 -605 810 0
-604 -605 -810 0
606 607 -811 0
-606 607 811 0
606 -607 811 0
-606 -607 -811 0
608 609 -812 0
-608 609 812 0
608 -609 812 0
-608 -609 -812 0
610 611 -813 0
-610 611 813 0
610 -611 813 0
-610 -611 -813 0
612 613 -814 0
-612 613 814 0
612 -613 814 0
-612 -613 -814 0
614 615 -815 0
-614 615 815 0
614 -615 815 0
-614 -615 -815 0
616 617 -816 0
-616 617 816 0
616 -617 816 0
-616 -617 -816 0
618 619 -817 0
-618 619 817 0
618 -619 817 0
-618 -619 -817 0
620 621 -818 0
-620 621 818 0
620 -621 818 0
-620 -621 -818 0
622 623 -819 0
-622 623 819 0
622 -623 819 0
-622 -623 -819 0
624 625 -820 0
-624 625 820 0
624 -625 820 0
-624 -625 -820 0
626 627 -821 0
-626 627 821 0
626 -627 821 0
-626 -627 -821 0
628 629 -822 0
-628 629 822 0
628 -629 822 0
-628 -629 -822 0
630 631 -823 0
-630 631 823 0
630 -631 823 0
-630 -631 -823 0
632 633 -824 0
-632 633 824 0
632 -633 824 0
-632 -633 -824 0
634 635 -825 0
-634 635 825 0
634 -635 825 0
-634 -635 -825 0
636 637 -826 0
-636 637 826 0
636 -637 826 0
-636 -637 -826 0
638 639 -827 0
-638 639 827 0
638 -639 827 0
-638 -639 -827 0
640 641 -828 0
-640 641 828 0
640 -641 828 0
-640 -641 -828 0
642 643 -829 0
-642 643 829 0
642 -643 829 0
-642 -643 -829 0
644 645 -830 0
-644 645 830 0
644 -645 830 0
-644 -645 -830 0
646 647 -831 0
-646 647 831 0
646 -647 831 0
-646 -647 -831 0
648 649 -832 0
-648 649 832 0
648 -649 832 0
-648 -649 -832 0
650 651 -833 0
-650 651 833 0
650 -651 833 0
-650 -651 -833 0
652 653 -834 0
-652 653 834 0
652 -653 834 0
-652 -653 -834 0
654 655 -835 0
-654 655 835 0
654 -655 835 0
-654 -655 -835 0
656 657 -836 0
-656 657 836 0
656 -657 836 0
-656 -657 -836 0
658 659 -837 0
-658 659 837 0
658 -659 837 0
-658 -659 -837 0
660 661 -838 0
-660 661 838 0
660 -661 838 0
-660 -661 -838 0
662 663 -839 0
-662 663 839 0
662 -663 839 0
-662 -663 -839 0
664 665 -840 0
-664 665 840 0
664 -665 840 0
-664 -665 -840 0
666 667 -841 0
-666 667 841 0
666 -667 841 0
-666 -667 -841 0
668 669 -842 0
-668 669 842 0
668 -669 842 0
-668 -669 -842 0
670 671 -843 0
-670 671 843 0
670 -671 843 0
-670 -671 -843 0
672 673 -844 0
-672 673 844 0
672 -673 844 0
-672 -673 -844 0
674 675 -845 0
-674 675 845 0
674 -675 845 0
-674 -675 -845 0
676 677 -846 0
-676 677 846 0
676 -677 846 0
-676 -677 -846 0
678 679 -847 0
-678 679 847 0
678 -679 847 0
-678 -679 -847 0
680 681 -848 0
-680 681 848 0
680 -681 848 0
-680 -681 -848 0
682 683 -849 0
-682 683 849 0
682 -683 849 0
-682 -683 -849 0
684 685 -850 0
-684 685 850 0
684 -685 850 0
-684 -685 -850 0
686 687 -851 0
-686 687 851 0
686 -687 851 0
-686 -687 -851 0
688 689 -852 0
-688 689 852 0
688 -689 852 0
-688 -689 -852 0
690 691 -853 0
-690 691 853 0
690 -691 853 0
-690 -691 -853 0
692 693 -854 0
-692 693 854 0
692 -693 854 0
-692 -693 -854 0
694 695 -855 0
-694 695 855 0
694 -695 855 0
-694 -695 -855 0
696 697 -856 0
-696 697 856 0
696 -697 856 0
-696 -697 -856 0
698 699 -857 0
-698 699 857 0
698 -699 857 0
-698 -699 -857 0
700 701 -858 0
-700 701 858 0
700 -701 858 0
-700 -701 -858 0
702 703 -859 0
-702 703 859 0
702 -703 859 0
-702 -703 -859 0
704 705 -860 0
-704 705 860 0
704 -705 860 0
-704 -705 -860 0
706 707 -861 0
-706 707 861 0
706 -707 861 0
-706 -707 -861 0
708 709 -862 0
-708 709 862 0
708 -709 862 0
-708 -709 -862 0
710 711 -863 0
-710 711 863 0
710 -711 863 0
-710 -711 -863 0
712 713 -864 0
-712 713 864 0
712 -713 864 0
-712 -713 -864 0
714 715 -865 0
-714 715 865 0
714 -715 865 0
-714 -715 -865 0
716 717 -866 0
-716 717 866 0
716 -717 866 0
-716 -717 -866 0
718 719 -867 0
-718 719 867 0
718 -719 867 0
-718 -719 -867 0
720 721 -868 0
-720 721 868 0
720 -721 868 0
-720 -721 -868 0
722 723 -869 0
-722 723 869 0
722 -723 869 0
-722 -723 -869 0
724 725 -870 0
-724 725 870 0
724 -725 870 0
-724 -725 -870 0
726 727 -871 0
-726 727 871 0
726 -727 871 0
-726 -727 -871 0
728 729 -872 0
-728 729 872 0
728 -729 872 0
-728 -729 -872 0
730 731 -873 0
-730 731 873 0
730 -731 873 0
-730 -731 -873 0
732 733 -874 0
-732 733 874 0
732 -733 874 0
-732 -733 -874 0
734 735 -875 0
-734 735 875 0
734 -735 875 0
-734 -735 -875 0
736 737 -876 0
-736 737 876 0
736 -737 876 0
-736 -737 -876 0
738 739 -877 0
-738 739 877 0
738 -739 877 0
-738 -739 -877 0
740 741 -878 0
-740 741 878 0
740 -741 878 0
-740 -741 -878 0
742 743 -879 0
-742 743 879 0
742 -743 879 0
-742 -743 -879 0
744 745 -880 0
-744 745 880 0
744 -745 880 0
-744 -745 -880 0
746 747 -881 0
-746 747 881 0
746 -747 881 0
-746 -747 -881 0
748 749 -882 0
-748 749 882 0
748 -749 882 0
-748 -749 -882 0
750 751 -883 0
-750 751 883 0
750 -751 883 0
-750 -751 -883 0
752 753 -884 0
-752 753 884 0
752 -753 884 0
-752 -753 -884 0
754 755 -885 0
-754 755 885 0
754 -755 885 0
-754 -755 -885 0
756 757 -886 0
-756 757 886 0
756 -757 886 0
-756 -757 -886 0
758 759 -887 0
-758 759 887 0
758 -759 887 0
-758 -759 -887 0
760 761 -888 0
-760 761 888 0
760 -761 888 0
-760 -761 -888 0
763 764 -889 0
-763 764 889 0
763 -764 889 0
-763 -764 -889 0
765 766 -890 0
-765 766 890 0
765 -766 890 0
-765 -766 -890 0
767 768 -891 0
-767 768 891 0
767 -768 891 0
-767 -768 -891 0
769 770 -892 0
-769 770 892 0
769 -770 892 0
-769 -770 -892 0
771 772 -893 0
-771 772 893 0
771 -772 893 0
-771 -772 -893 0
773 774 -894 0
-773 774 894 0
773 -774 894 0
-773 -774 -894 0
775 776 -895 0
-775 776 895 0
775 -776 895 0
-775 -776 -895 0
777 778 -896 0
-777 778 896 0
777 -778 896 0
-777 -778 -896 0
779 780 -897 0
-779 780 897 0
779 -780 897 0
-779 -780 -897 0
781 782 -898 0
-781 782 898 0
781 -782 898 0
-781 -782 -898 0
783 784 -899 0
-783 784 899 0
783 -784 899 0
-783 -784 -899 0
785 786 -900 0
-785 786 900 0
785 -786 900 0
-785 -786 -900 0
787 788 -901 0
-787 788 901 0
787 -788 901 0
-787 -788 -901 0
789 790 -902 0
-789 790 902 0
789 -790 902 0
-789 -790 -902 0
791 792 -903 0
-791 792 903 0
791 -792 903 0
-791 -792 -903 0
793 794 -904 0
-793 794 904 0
793 -794 904 0
-793 -794 -904 0
795 796 -905 0
-795 796 905 0
795 -796 905 0
-795 -796 -905 0
797 798 -906 0
-797 798 906 0
797 -798 906 0
-797 -798 -906 0
799 800 -907 0
-799 800 907 0
799 -800 907 0
-799 -800 -907 0
801 802 -908 0
-801 802 908 0
801 -802 908 0
-801 -802 -908 0
803 804 -909 0
-803 804 909 0
803 -804 909 0
-803 -804 -909 0
805 806 -910 0
-805 806 910 0
805 -806 910 0
-805 -806 -910 0
807 808 -911 0
-807 808 911 0
807 -808 911 0
-807 -808 -911 0
809 810 -912 0
-809 810 912 0
809 -810 912 0
-809 -810 -912 0
811 812 -913 0
-811 812 913 0
811 -812 913 0
-811 -812 -913 0
813 814 -914 0
-813 814 914 0
813 -814 914 0
-813 -814 -914 0
815 816 -915 0
-815 816 915 0
815 -816 915 0
-815 -816 -915 0
817 818 -916 0
-817 818 916 0
817 -818 916 0
-817 -818 -916 0
819 820 -917 0
-819 820 917 0
819 -820 917 0
-819 -820 -917 0
821 822 -918 0
-821 822 918 0
821 -822 918 0
-821 -822 -918 0
823 824 -919 0
-823 824 919 0
823 -824 919 0
-823 -824 -919 0
825 826 -920 0
-825 826 920 0
825 -826 920 0
-825 -826 -920 0
827 828 -921 0
-827 828 921 0
827 -828 921 0
-827 -828 -921 0
829 830 -922 0
-829 830 922 0
829 -830 922 0
-829 -830 -922 0
831 832 -923 0
-831 832 923 0
831 -832 923 0
-831 -832 -923 0
833 834 -924 0
-833 834 924 0
833 -834 924 0
-833 -834 -924 0
835 836 -925 0
-835 836 925 0
835 -836 925 0
-835 -836 -925 0
837 838 -926 0
-837 838 926 0
837 -838 926 0
-837 -838 -926 0
839 840 -927 0
-839 840 927 0
839 -840 927 0
-839 -840 -927 0
841 842 -928 0
-841 842 928 0
841 -842 928 0
-841 -842 -928 0
843 844 -929 0
-843 844 929 0
843 -844 929 0
-843 -844 -929 0
845 846 -930 0
-845 846 930 0
845 -846 930 0
-845 -846 -930 0
847 848 -931 0
-847 848 931 0
847 -848 931 0
-847 -848 -931 0
849 850 -932 0
-849 850 932 0
849 -850 932 0
-849 -850 -932 0
851 852 -933 0
-851 852 933 0
851 -852 933 0
-851 -852 -933 0
853 854 -934 0
-853 854 934 0
853 -854 934 0
-853 -854 -934 0
855 856 -935 0
-855 856 935 0
855 -856 935 0
-855 -856 -935 0
857 858 -936 0
-857 858 936 0
857 -858 936 0
-857 -858 -936 0
859 860 -937 0
-859 860 937 0
859 -860 937 0
-859 -860 -937 0
861 862 -938 0
-861 862 938 0
861 -862 938 0
-861 -862 -938 0
863 864 -939 0
-863 864 939 0
863 -864 939 0
-863 -864 -939 0
865 866 -940 0
-865 866 940 0
865 -866 940 0
-865 -866 -940 0
867 868 -941 0
-867 868 941 0
867 -868 941 0
-867 -868 -941 0
869 870 -942 0
-869 870 942 0
869 -870 942 0
-869 -870 -942 0
871 872 -943 0
-871 872 943 0
871 -872 943 0
-871 -872 -943 0
873 874 -944 0
-873 874 944 0
873 -874 944 0
-873 -874 -944 0
875 876 -945 0
-875 876 945 0
875 -876 945 0
-875 -876 -945 0
877 878 -946 0
-877 878 946 0
877 -878 946 0
-877 -878 -946 0
879 880 -947 0
-879 880 947 0
879 -880 947 0
-879 -880 -947 0
881 882 -948 0
-881 882 948 0
881 -882 948 0
-881 -882 -948 0
883 884 -949 0
-883 884 949 0
883 -884 949 0
-883 -884 -949 0
885 886 -950 0
-885 886 950 0
885 -886 950 0
-885 -886 -950 0
887 888 -951 0
-887 888 951 0
887 -888 951 0
-887 -888 -951 0
889 890 -952 0
-889 890 952 0
889 -890 952 0
-889 -890 -952 0
891 892 -953 0
-891 892 953 0
891 -892 953 0
-891 -892 -953 0
893 894 -954 0
-893 894 954 0
893 -894 954 0
-893 -894 -954 0
895 896 -955 0
-895 896 955 0
895 -896 955 0
-895 -896 -955 0
897 898 -956 0
-897 898 956 0
897 -898 956 0
-897 -898 -956 0
899 900 -957 0
-899 900 957 0
899 -900 957 0
-899 -900 -957 0
901 902 -958 0
-901 902 958 0
901 -902 958 0
-901 -902 -958 0
903 904 -959 0
-903 904 959 0
903 -904 959 0
-903 -904 -959 0
905 906 -960 0
-905 906 960 0
905 -906 960 0
-905 -906 -960 0
907 908 -961 0
-907 908 961 0
907 -908 961 0
-907 -908 -961 0
909 910 -962 0
-909 910 962 0
909 -910 962 0
-909 -910 -962 0
911 912 -963 0
-911 912 963 0
911 -912 963 0
-911 -912 -963 0
913 914 -964 0
-913 914 964 0
913 -914 964 0
-913 -914 -964 0
915 916 -965 0
-915 916 965 0
915 -916 965 0
-915 -916 -965 0
917 918 -966 0
-917 918 966 0
917 -918 966 0
-917 -918 -966 0
919 920 -967 0
-919 920 967 0
919 -920 967 0
-919 -920 -967 0
921 922 -968 0
-921 922 968 0
921 -922 968 0
-921 -922 -968 0
923 924 -969 0
-923 924 969 0
923 -924 969 0
-923 -924 -969 0
925 926 -970 0
-925 926 970 0
925 -926 970 0
-925 -926 -970 0
927 928 -971 0
-927 928 971 0
927 -928 971 0
-927 -928 -971 0
929 930 -972 0
-929 930 972 0
929 -930 972 0
-929 -930 -972 0
931 932 -973 0
-931 932 973 0
931 -932 973 0
-931 -932 -973 0
933 934 -974 0
-933 934 974 0
933 -934 974 0
-933 -934 -974 0
935 936 -975 0
-935 936 975 0
935 -936 975 0
-935 -936 -975 0
937 938 -976 0
-937 938 976 0
937 -938 976 0
-937 -938 -976 0
939 940 -977 0
-939 940 977 0
939 -940 977 0
-939 -940 -977 0
941 942 -978 0
-941 942 978 0
941 -942 978 0
-941 -942 -978 0
943 944 -979 0
-943 944 979 0
943 -944 979 0
-943 -944 -979 0
945 946 -980 0
-945 946 980 0
945 -946 980 0
-945 -946 -980 0
947 948 -981 0
-947 948 981 0
947 -948 981 0
-947 -948 -981 0
949 950 -982 0
-949 950 982 0
949 -950 982 0
-949 -950 -982 0
951 762 -983 0
-951 762 983 0
951 -762 983 0
-951 -762 -983 0
952 953 -984 0
-952 953 984 0
952 -953 984 0
-952 -953 -984 0
954 955 -985 0
-954 955 985 0
954 -955 985 0
-954 -955 -985 0
956 957 -986 0
-956 957 986 0
956 -957 986 0
-956 -957 -986 0
958 959 -987 0
-958 959 987 0
958 -959 987 0
-958 -959 -987 0
960 961 -988 0
-960 961 988 0
960 -961 988 0
-960 -961 -988 0
962 963 -989 0
-962 963 989 0
962 -963 989 0
-962 -963 -989 0
964 965 -990 0
-964 965 990 0
964 -965 990 0
-964 -965 -990 0
966 967 -991 0
-966 967 991 0
966 -967 991 0
-966 -967 -991 0
968 969 -992 0
-968 969 992 0
968 -969 992 0
-968 -969 -992 0
970 971 -993 0
-970 971 993 0
970 -971 993 0
-970 -971 -993 0
972 973 -994 0
-972 973 994 0
972 -973 994 0
-972 -973 -994 0
974 975 -995 0
-974 975 995 0
974 -975 995 0
-974 -975 -995 0
976 977 -996 0
-976 977 996 0
976 -977 996 0
-976 -977 -996 0
978 979 -997 0
-978 979 997 0
978 -979 997 0
-978 -979 -997 0
980 981 -998 0
-980 981 998 0
980 -981 998 0
-980 -981 -998 0
982 983 -999 0
-982 983 999 0
982 -983 999 0
-982 -983 -999 0
984 985 -1000 0
-984 985 1000 0
984 -985 1000 0
-984 -985 -1000 0
986 987 -1001 0
-986 987 1001 0
986 -987 1001 0
-986 -987 -1001 0
988 989 -1002 0
-988 989 1002 0
988 -989 1002 0
-988 -989 -1002 0
990 991 -1003 0
-990 991 1003 0
990 -991 1003 0
-990 -991 -1003 0
992 993 -1004 0
-992 993 1004 0
992 -993 1004 0
-992 -993 -1004 0
994 995 -1005 0
-994 995 1005 0
994 -995 1005 0
-994 -995 -1005 0
996 997 -1006 0
-996 997 1006 0
996 -997 1006 0
-996 -997 -1006 0
998 999 -1007 0
-998 999 1007 0
998 -999 1007 0
-998 -999 -1007 0
1000 1001 -1008 0
-1000 1001 1008 0
1000 -1001 1008 0
-1000 -1001 -1008 0
1002 1003 -1009 0
-1002 1003 1009 0
1002 -1003 1009 0
-1002 -1003 -1009 0
1004 1005 -1010 0
-1004 1005 1010 0
1004 -1005 1010 0
-1004 -1005 -1010 0
1006 1007 -1011 0
-1006 1007 1011 0
1006 -1007 1011 0
-1006 -1007 -1011 0
1008 1009 -1012 0
-1008 1009 1012 0
1008 -1009 1012 0
-1008 -1009 -1012 0
1010 1011 -1013 0
-1010 1011 1013 0
1010 -1011 1013 0
-1010 -1011 -1013 0
1012 1013 -507 0
-1012 1013 507 0
1012 -1013 507 0
-1012 -1013 -507 0
